(set-logic QF_S)
(declare-fun var0 () String)
(assert (str.in.re var0 (re.++ (re.* (re.+ (str.to.re "0"))) (re.++ (re.union (re.* (str.to.re "111")) (re.* (str.to.re "222"))) (re.++ (re.+ (re.+ (str.to.re "33"))) (re.++ (re.union (re.union (str.to.re "444") (str.to.re "5")) (re.+ (str.to.re "6"))) (re.++ (re.+ (re.* (str.to.re "777"))) (re.++ (re.union (re.union (str.to.re "88") (str.to.re "99")) (re.+ (str.to.re "aa"))) (re.++ (re.union (re.* (str.to.re "bbb")) (re.* (str.to.re "c"))) (re.++ (re.* (re.+ (str.to.re "d"))) (re.++ (re.* (re.* (str.to.re "ee"))) (re.++ (re.union (re.* (str.to.re "fff")) (re.union (str.to.re "ggg") (str.to.re "hh"))) (re.++ (re.+ (re.union (str.to.re "i") (str.to.re "jj"))) (re.++ (re.* (re.union (str.to.re "kkk") (str.to.re "l"))) (re.++ (re.+ (re.* (str.to.re "m"))) (re.++ (re.+ (re.+ (str.to.re "nnn"))) (re.++ (re.* (re.* (str.to.re "o"))) (re.++ (re.+ (re.+ (str.to.re "p"))) (re.++ (re.* (re.union (str.to.re "qqq") (str.to.re "rrr"))) (re.++ (re.* (re.* (str.to.re "s"))) (re.++ (re.+ (re.+ (str.to.re "ttt"))) (re.++ (re.+ (re.union (str.to.re "uuu") (str.to.re "v"))) (re.++ (re.+ (re.union (str.to.re "ww") (str.to.re "x"))) (re.++ (re.+ (re.* (str.to.re "y"))) (re.++ (re.* (re.+ (str.to.re "zzz"))) (re.++ (re.union (re.union (str.to.re "AAA") (str.to.re "BB")) (re.* (str.to.re "CCC"))) (re.++ (re.union (re.* (str.to.re "DD")) (re.+ (str.to.re "EEE"))) (re.++ (re.+ (re.* (str.to.re "FF"))) (re.++ (re.union (re.union (str.to.re "GG") (str.to.re "HHH")) (re.* (str.to.re "I"))) (re.++ (re.+ (re.* (str.to.re "J"))) (re.++ (re.union (re.+ (str.to.re "KKK")) (re.+ (str.to.re "LLL"))) (re.++ (re.union (re.* (str.to.re "MM")) (re.* (str.to.re "N"))) (re.++ (re.union (re.* (str.to.re "O")) (re.+ (str.to.re "PPP"))) (re.++ (re.* (re.+ (str.to.re "QQ"))) (re.++ (re.union (re.* (str.to.re "RRR")) (re.union (str.to.re "SSS") (str.to.re "T"))) (re.++ (re.+ (re.+ (str.to.re "UU"))) (re.++ (re.* (re.union (str.to.re "VV") (str.to.re "W"))) (re.++ (re.+ (re.* (str.to.re "XXX"))) (re.++ (re.+ (re.union (str.to.re "Y") (str.to.re "ZZZ"))) (re.++ (re.+ (re.* (str.to.re "!!"))) (re.++ (re.union (re.+ (str.to.re """""""")) (re.+ (str.to.re "##"))) (re.++ (re.+ (re.* (str.to.re "$$"))) (re.++ (re.* (re.* (str.to.re "%%"))) (re.++ (re.+ (re.+ (str.to.re "&&"))) (re.++ (re.+ (re.+ (str.to.re "'''"))) (re.++ (re.* (re.+ (str.to.re "((("))) (re.++ (re.* (re.* (str.to.re ")"))) (re.++ (re.* (re.+ (str.to.re "*"))) (re.++ (re.+ (re.+ (str.to.re "+++"))) (re.++ (re.union (re.union (str.to.re ",,") (str.to.re "-")) (re.union (str.to.re ".") (str.to.re "/"))) (re.++ (re.union (re.* (str.to.re "::")) (re.+ (str.to.re ";"))) (re.++ (re.union (re.+ (str.to.re "<")) (re.+ (str.to.re "=="))) (re.++ (re.* (re.union (str.to.re ">>") (str.to.re "??"))) (re.++ (re.union (re.+ (str.to.re "@")) (re.* (str.to.re "[[["))) (re.++ (re.union (re.* (str.to.re "\\")) (re.union (str.to.re "]") (str.to.re "^^"))) (re.++ (re.union (re.union (str.to.re "_") (str.to.re "`")) (re.union (str.to.re "{") (str.to.re "|"))) (re.++ (re.union (re.+ (str.to.re "}}")) (re.union (str.to.re "~~~") (str.to.re "00"))) (re.++ (re.union (re.* (str.to.re "111")) (re.+ (str.to.re "222"))) (re.++ (re.* (re.* (str.to.re "3"))) (re.++ (re.* (re.+ (str.to.re "4"))) (re.++ (re.* (re.union (str.to.re "5") (str.to.re "6"))) (re.++ (re.union (re.+ (str.to.re "77")) (re.+ (str.to.re "888"))) (re.++ (re.* (re.union (str.to.re "9") (str.to.re "a"))) (re.++ (re.* (re.* (str.to.re "bbb"))) (re.++ (re.* (re.+ (str.to.re "ccc"))) (re.* (re.* (str.to.re "ddd"))))))))))))))))))))))))))))))))))))))))))))))))))))))))))))))))))))
(check-sat)